/*********************************************
 * OPL 12.6.0.0 Data
 * Author: Adrian Rodriguez Bazaga, Pau Rodriguez Esmerats
 * Creation Date: 09/12/2017 at 16:38:12
 *********************************************/

maxConsec=3;
maxPresence=8;
maxHours=5;
minHours=2;
hours=12;
demand= [44 57 59 16 43 57 55 15 0 1 0 1  ];
nNurses=96;
